dates = {'2022-02-02','2022-02-03','2022-02-04','2022-02-05','2022-02-06','2022-02-07','2022-02-08','2022-02-09','2022-02-10','2022-02-11','2022-02-12','2022-02-13','2022-02-14','2022-02-15','2022-02-16','2022-02-17','2022-02-18','2022-02-19','2022-02-20','2022-02-21','2022-02-22','2022-02-23','2022-02-24','2022-02-25','2022-02-26','2022-02-27','2022-02-28','2022-03-01','2022-03-02','2022-03-03'};

daysOfWeek = [Wednesday,Thursday,Friday,Saturday,Sunday,Monday,Tuesday,Wednesday,Thursday,Friday,Saturday,Sunday,Monday,Tuesday,Wednesday,Thursday,Friday,Saturday,Sunday,Monday,Tuesday,Wednesday,Thursday,Friday,Saturday,Sunday,Monday,Tuesday,Wednesday,Thursday];

% For this week, how many people will be here.
numPeople = [160,155,158,158,158,154,156,156,156,156,156,156,156,163,163,163,162,147
,161,157,157,157,148,162,148,148,135,139,136,125];

% Physical workers need 50 to 100 % more nutrients per day.
numPhysicalWorkers = [54.0,54.0,53.0,53.0,53.0,53.0,51.5,51.5,51.5,51.5,51.5,51.5,55.0,50.5
,50.5,50.5,50.5,50.5,47.0,47.0,47.0,47.0,47.0,46.0,46.0,46.0,46.0,42.0
,42.0,39.0];

% Males need +25% more nutrients per day.
numMen = [132,132,132,132,132,132,128,128,128,128,128,128,132,134,134,134,134,136
,145,133,129,135,129,135,135,121,121,112,112,109];

% Num people who do not eat categories. contains = {none, meat, milk, gluten, egg, nut, seed, sugars}
numRefusals = [| 0,0,0,0,0,7,0,0 | 0,1,28,15,0,8,0,0 | 0,16,18,0,0,0,0,0 | 0,16,18,0,0,0,0,0 | 0,16,18,0,0,0,0,0 | 0,0,42,38,14,0,8,0 | 0,13,7,0,0,0,22,0 | 0,13,7,0,0,0,22,0 | 0,13,7,0,0,0,22,0 | 0,13,7,0,0,0,22,0 | 0,13,7,0,0,0,22,0 | 0,13,7,0,0,0,22,0 | 0,13,7,0,0,0,22,0 | 0,22,1,0,0,6,4,0 | 0,22,1,0,0,6,4,0 | 0,22,1,0,0,6,4,0 | 0,0,0,0,0,0,0,25 | 0,0,0,0,0,29,13,0 | 0,8,0,6,32,0,0,0 | 0,0,7,0,30,46,4,33 | 0,0,7,0,30,46,4,33 | 0,0,7,0,30,46,4,33 | 0,0,0,0,0,3,4,0 | 0,16,24,0,19,31,0,0 | 0,34,0,0,0,0,0,3 | 0,34,0,0,0,0,0,3 | 0,11,0,2,0,0,0,17 | 0,0,10,0,18,0,0,0 | 0,6,4,0,0,0,4,0 | 0,0,0,19,28,0,9,0 |];

